0_instance_selection/optil_deployment/lite/full/vc-lite_018.gr
p td 1490 2680
1 1391
1 174
1 390
1 415
1 523
1 629
1 981
1391 119
1391 231
1391 363
1391 398
1391 518
1391 625
1391 971
1391 974
2 1392
2 369
2 383
2 512
2 597
2 692
2 975
2 1033
2 1084
2 1097
2 1161
2 1361
1392 136
3 1393
3 286
3 679
3 714
3 1261
3 1276
3 1309
1393 344
1393 1034
1393 1064
1393 1116
1393 1342
4 1394
4 206
4 294
4 319
4 605
4 623
4 810
4 1041
4 1072
4 1164
1394 184
1394 262
1394 702
1394 1095
5 1395
5 150
5 166
5 507
5 593
5 708
5 849
5 868
5 921
5 1007
5 1056
5 1087
5 1344
1395 217
1395 863
1395 1019
1395 1037
1395 1053
6 1396
6 322
6 539
6 575
6 854
6 977
6 1066
6 1090
6 1262
1396 343
1396 656
1396 866
1396 876
1396 941
1396 1349
1396 1371
7 1397
7 192
7 321
7 411
7 609
7 901
7 1014
7 1104
7 1273
7 1289
7 1299
1397 131
1397 148
1397 222
1397 226
1397 388
1397 455
1397 728
1397 746
1397 1128
1397 1196
1397 1247
1397 1332
8 1398
8 159
8 163
8 223
8 244
8 396
8 408
8 712
8 931
8 965
8 1106
8 1219
1398 691
1398 846
1398 992
1398 1316
1398 1341
9 1399
9 158
9 300
9 654
9 1343
1399 365
1399 579
1399 1086
1399 1185
1399 1369
10 1400
10 598
10 851
1400 252
1400 454
1400 470
1400 743
1400 760
1400 809
1400 1070
1400 1096
1400 1240
1400 1363
11 1401
11 375
11 473
11 740
11 766
11 856
1401 112
1401 185
1401 274
1401 462
1401 537
1401 639
1401 831
1401 896
1401 926
1401 952
1401 1069
1401 1134
12 1402
12 134
12 560
12 570
12 612
12 802
12 823
12 880
1402 362
1402 421
1402 497
1402 600
13 1403
13 288
13 794
13 985
13 1154
13 1177
1403 632
1403 964
1403 1111
1403 1246
1403 1366
14 1404
14 484
14 555
14 576
14 765
14 781
14 976
14 1331
1404 203
1404 290
1404 351
1404 526
1404 564
1404 608
1404 616
1404 634
1404 972
1404 1188
15 1405
15 126
15 311
15 371
15 439
15 706
15 1036
15 1040
15 1156
1405 469
1405 661
1405 744
1405 1119
1405 1143
1405 1160
16 1406
16 380
16 428
16 705
16 1248
1406 450
1406 463
1406 516
1406 731
1406 832
1406 1023
1406 1329
17 1407
17 182
17 198
17 208
17 285
17 355
17 430
17 471
17 1055
1407 220
1407 323
1407 562
1407 824
1407 871
1407 885
1407 911
1407 940
1407 1290
1407 1389
18 1408
18 211
18 710
18 741
18 1138
18 1267
18 1285
1408 389
1408 1166
1408 1217
1408 1249
19 1409
19 189
19 726
19 937
1409 147
1409 312
1409 370
1409 488
1409 508
1409 626
1409 929
1409 1388
20 1410
20 302
20 438
20 1297
20 1300
1410 354
1410 441
1410 544
1410 668
1410 763
1410 942
1410 1172
1410 1244
1410 1263
21 1411
21 204
21 399
21 1050
21 1140
1411 519
1411 558
1411 798
1411 1202
22 1412
22 291
22 578
22 861
22 1004
22 1089
22 1099
22 1237
22 1243
22 1311
1412 129
1412 464
1412 495
1412 514
1412 520
1412 665
1412 902
23 1413
23 111
23 386
23 557
23 1259
1413 162
1413 173
1413 191
1413 251
1413 339
1413 700
1413 747
1413 792
1413 945
1413 991
1413 1178
1413 1195
1413 1356
24 1414
24 465
24 836
24 907
24 1027
1414 301
1414 378
1414 491
1414 528
1414 546
1414 617
1414 689
1414 753
1414 795
1414 909
1414 987
25 1415
25 565
25 606
25 674
25 693
25 857
25 960
25 1025
25 1068
25 1110
25 1252
1415 243
1415 433
1415 1076
1415 1126
1415 1292
26 1416
26 499
26 1190
1416 200
1416 493
1416 531
1416 549
1416 1042
1416 1118
1416 1129
1416 1266
1416 1364
27 1417
27 104
27 490
27 1367
1417 1059
28 1418
28 489
28 624
28 653
28 808
28 925
28 1105
28 1179
28 1347
1418 132
1418 297
1418 590
1418 682
1418 727
1418 769
1418 892
1418 1032
1418 1184
1418 1198
1418 1294
1418 1339
29 1419
29 188
29 218
29 535
29 660
29 805
29 814
29 1026
29 1165
1419 245
1419 250
1419 313
1419 511
1419 651
1419 675
1419 789
30 1420
30 199
30 221
30 253
30 589
30 900
30 1102
1420 154
31 1421
31 307
31 492
31 738
31 891
31 1283
1421 122
1421 340
1421 447
1421 586
1421 709
1421 986
1421 1230
1421 1324
32 1422
32 543
32 696
32 858
32 865
32 1323
1422 498
1422 650
1422 703
1422 997
1422 999
1422 1241
1422 1368
33 1423
33 178
33 525
33 1281
1423 214
1423 1081
1423 1206
1423 1304
34 1424
34 276
34 298
34 611
34 677
34 936
34 1018
34 1093
34 1328
1424 255
1424 657
1424 755
1424 1141
35 1425
35 847
35 954
35 1047
35 1279
1425 237
1425 426
1425 686
1425 1207
36 1426
36 197
36 394
36 403
36 486
36 588
36 732
36 1334
1426 451
1426 688
1426 761
1426 1238
1426 1326
1426 1354
37 1427
37 225
37 345
37 360
37 574
37 630
37 751
37 779
37 1150
37 1245
37 1264
37 1306
1427 320
1427 406
1427 610
1427 748
1427 893
1427 1133
38 1428
38 335
38 638
38 811
38 841
38 917
38 994
38 1386
1428 305
1428 504
1428 548
1428 860
1428 1000
1428 1278
39 1429
39 336
39 392
39 553
39 720
39 771
39 959
39 1092
39 1330
1429 427
1429 449
1429 496
1429 750
1429 764
1429 815
1429 825
1429 905
1429 966
1429 1173
1429 1224
1429 1378
40 1430
40 414
40 580
40 694
40 773
40 778
40 920
40 962
40 1157
40 1268
1430 172
1430 803
1430 828
1430 930
41 1431
41 190
41 404
41 487
41 500
41 834
41 1045
41 1147
41 1186
41 1221
1431 168
1431 212
1431 372
1431 453
1431 509
1431 637
1431 913
1431 1039
1431 1049
1431 1199
1431 1250
42 1432
42 296
42 718
42 898
1432 201
1432 257
1432 602
1432 1227
43 1433
43 683
43 797
43 995
43 1001
43 1048
43 1271
43 1355
1433 367
1433 482
1433 533
1433 599
1433 647
1433 787
1433 790
1433 889
1433 1351
1433 1377
44 1434
44 156
44 235
44 269
44 293
44 381
44 636
44 822
44 1385
1434 277
1434 407
1434 452
1434 567
1434 843
1434 912
45 1435
45 128
45 193
45 240
45 268
45 431
45 478
45 643
45 1282
1435 140
1435 327
1435 786
1435 1370
46 1436
46 110
46 270
46 315
46 644
46 1017
46 1226
1436 151
1436 592
1436 614
1436 652
1436 776
1436 800
1436 848
1436 867
1436 1073
1436 1083
47 1437
47 337
47 796
47 1060
47 1088
47 1234
47 1287
1437 130
1437 241
1437 248
1437 346
1437 436
1437 467
1437 561
1437 678
1437 1112
1437 1142
1437 1183
1437 1336
1437 1390
48 1438
48 317
48 330
48 349
48 1222
1438 109
1438 585
1438 627
1438 721
1438 1100
1438 1171
1438 1192
49 1439
49 116
49 124
49 187
49 219
49 377
49 538
49 552
49 827
49 1159
1439 125
1439 157
1439 259
1439 522
1439 1139
1439 1352
50 1440
50 532
50 601
50 1028
1440 127
1440 446
1440 873
1440 970
1440 1180
51 1441
51 228
51 472
51 577
51 775
51 1009
51 1135
51 1145
1441 287
1441 384
1441 402
1441 782
1441 818
1441 837
1441 1006
1441 1031
1441 1151
52 1442
52 635
52 864
52 897
52 914
1442 101
1442 142
1442 246
1442 1113
1442 1232
1442 1305
53 1443
53 310
53 437
53 468
53 485
53 540
53 673
53 687
53 1016
53 1022
53 1242
1443 481
1443 591
1443 699
1443 749
1443 910
1443 993
1443 1013
1443 1030
1443 1170
54 1444
54 238
54 364
54 908
54 1205
54 1228
54 1317
1444 401
1444 419
1444 445
1444 690
1444 695
1444 869
1444 877
1444 1061
1444 1298
1444 1353
55 1445
55 554
55 569
55 1229
55 1239
1445 456
1445 1209
1445 1382
56 1446
56 423
56 633
56 685
56 919
56 1062
56 1187
56 1254
56 1346
1446 314
1446 459
1446 559
1446 719
1446 973
1446 1008
1446 1286
1446 1387
57 1447
57 207
57 572
57 835
57 1091
57 1236
1447 106
1447 724
1447 887
1447 1359
58 1448
58 138
58 284
58 306
58 529
58 969
58 1381
1448 105
1448 521
1448 701
59 1449
59 649
59 698
59 816
59 923
59 958
59 988
59 1260
59 1320
1449 180
1449 309
1449 318
1449 820
1449 881
1449 938
1449 1057
1449 1120
1449 1291
1449 1322
60 1450
60 265
60 581
60 830
60 1005
60 1137
60 1155
60 1174
1450 292
1450 409
1450 412
1450 448
1450 536
1450 859
1450 1103
1450 1153
1450 1258
61 1451
61 216
61 357
61 366
61 573
61 662
61 833
61 839
61 888
61 1071
61 1200
1451 434
1451 713
1451 947
1451 1101
1451 1220
62 1452
62 583
62 596
62 852
62 1182
62 1372
1452 232
1452 342
1452 503
1452 568
1452 628
1452 899
1452 1109
63 1453
63 395
63 655
63 711
63 862
63 957
1453 171
1453 505
1453 716
1453 1333
64 1454
64 242
64 338
64 397
64 400
64 733
64 928
64 961
64 1152
64 1181
1454 183
1454 236
1454 582
1454 801
1454 826
65 1455
65 229
65 422
65 604
65 607
65 676
1455 186
1455 224
1455 361
1455 435
1455 838
1455 1313
66 1456
66 273
66 551
66 621
66 785
66 906
66 1015
66 1114
1456 772
1456 1131
1456 1350
67 1457
67 139
67 271
1457 524
1457 645
1457 955
1457 1063
1457 1146
1457 1210
68 1458
68 118
68 133
68 480
68 1020
68 1360
1458 510
1458 963
1458 1123
1458 1337
1458 1384
69 1459
69 137
69 272
69 918
69 968
69 996
69 1035
69 1251
1459 282
1459 642
1459 904
1459 1274
1459 1345
70 1460
70 135
70 143
70 164
70 358
70 715
70 1148
70 1284
1460 326
1460 382
1460 736
1460 1044
1460 1098
71 1461
71 334
71 483
71 1303
71 1375
1461 249
1461 267
1461 444
1461 757
1461 1169
1461 1325
1461 1379
72 1462
72 114
72 263
72 458
72 475
72 646
72 707
72 813
72 1010
1462 619
1462 704
1462 903
1462 948
1462 1225
1462 1340
73 1463
73 429
73 457
73 791
73 922
1463 295
1463 541
1463 603
1463 1191
1463 1265
74 1464
74 331
74 440
74 550
74 595
74 631
74 670
74 770
74 840
74 1075
74 1167
74 1257
1464 517
1464 730
1464 783
1464 916
1464 1201
1464 1272
75 1465
75 328
75 333
75 804
75 934
1465 405
1465 684
1465 717
1465 845
1465 853
1465 989
1465 1079
1465 1235
1465 1348
76 1466
76 152
76 266
76 280
76 413
76 506
76 722
76 1315
76 1338
1466 202
1466 515
1466 739
1466 924
1466 1051
1466 1168
77 1467
77 425
77 615
77 950
77 967
1467 165
1467 194
1467 978
1467 1038
1467 1054
1467 1280
78 1468
78 308
78 376
78 556
78 1021
78 1194
1468 160
1468 329
1468 669
1468 756
1468 806
1468 812
1468 949
1468 1067
1468 1189
1468 1214
79 1469
79 155
79 474
79 752
79 932
79 1256
79 1293
79 1295
1469 666
80 1470
80 281
80 418
80 545
80 872
80 1052
1470 120
1470 325
1470 807
1470 1158
81 1471
81 304
81 324
81 417
81 613
81 788
81 886
81 956
81 1024
81 1108
81 1136
81 1163
81 1216
1471 115
1471 123
1471 215
1471 479
1471 758
1471 1204
1471 1357
82 1472
82 416
82 420
82 658
82 768
82 1132
82 1307
1472 153
1472 209
1472 640
1472 725
83 1473
83 571
83 990
83 1107
1473 254
1473 745
1473 879
1473 882
1473 935
84 1474
84 141
84 170
84 303
84 373
84 1302
84 1335
1474 442
1474 1296
85 1475
85 256
85 258
85 527
85 821
85 878
85 1043
85 1193
85 1211
85 1308
1475 819
1475 998
1475 1029
1475 1223
1475 1301
86 1476
86 175
86 234
86 278
86 793
86 874
86 1321
1476 102
1476 332
1476 393
1476 530
1476 659
1476 680
1476 735
1476 1003
1476 1082
1476 1124
87 1477
87 144
87 979
87 1122
1477 117
1477 161
1477 385
1477 466
1477 982
1477 1269
88 1478
88 316
88 587
88 641
88 884
88 984
88 1213
1478 108
1478 149
1478 210
1478 348
1478 352
1478 356
1478 513
1478 664
1478 681
1478 915
1478 1149
1478 1288
1478 1380
89 1479
89 167
89 264
89 424
89 542
89 737
89 983
89 1318
1479 176
1479 347
1479 953
1479 1215
1479 1218
1479 1373
90 1480
90 368
90 443
90 502
90 723
90 734
90 850
1480 239
1480 247
1480 534
1480 563
1480 584
1480 729
1480 777
1480 817
1480 944
1480 1080
1480 1125
1480 1231
91 1481
91 391
91 663
91 1065
91 1115
91 1162
91 1376
1481 618
1481 774
1481 1077
92 1482
92 205
92 289
92 359
92 566
92 1012
92 1203
92 1270
92 1277
1482 196
1482 299
1482 461
1482 622
1482 894
1482 1130
1482 1175
1482 1365
1482 1383
93 1483
93 261
93 672
93 855
93 1094
93 1176
93 1197
1483 275
1483 279
1483 667
1483 1046
1483 1117
1483 1312
94 1484
94 387
94 432
94 501
94 697
94 844
94 1011
94 1078
1484 103
1484 113
1484 283
1484 648
1484 933
95 1485
95 476
95 742
95 842
95 1212
95 1374
1485 107
1485 230
1485 547
1485 875
1485 883
1485 890
1485 943
96 1486
96 179
96 233
96 353
96 477
96 870
96 1255
96 1310
96 1327
1486 121
1486 177
1486 671
1486 799
1486 1085
1486 1121
1486 1127
97 1487
97 213
97 494
97 594
97 1208
97 1275
98 1488
98 379
98 939
98 946
98 1058
98 1319
98 1362
1488 169
1488 181
1488 260
1488 762
1488 927
1488 980
99 1489
99 227
99 784
99 829
99 895
99 951
99 1358
1489 146
1489 195
1489 341
1489 460
1489 767
1489 1233
1489 1314
100 1490
100 350
100 374
100 1074
100 1253
1490 145
1490 410
1490 620
1490 754
1490 759
1490 780
1490 1002
1490 1144
101 102
101 103
102 103
104 105
104 106
105 106
107 108
107 109
108 109
110 111
110 112
111 112
113 114
113 115
114 115
116 117
116 118
117 118
119 120
119 121
120 121
122 123
122 124
123 124
125 126
125 127
126 127
128 129
128 130
129 130
131 132
131 133
132 133
134 135
134 136
135 136
137 138
137 139
138 139
140 141
140 142
141 142
143 144
143 145
144 145
146 147
146 148
147 148
149 150
149 151
150 151
152 153
152 154
153 154
155 156
155 157
156 157
158 159
158 160
159 160
161 162
161 163
162 163
164 165
164 166
165 166
167 168
167 169
168 169
170 171
170 172
171 172
173 174
173 175
174 175
176 177
176 178
177 178
179 180
179 181
180 181
182 183
182 184
183 184
185 186
185 187
186 187
188 189
188 190
189 190
191 192
191 193
192 193
194 195
194 196
195 196
197 198
197 199
198 199
200 201
200 202
201 202
203 204
203 205
204 205
206 207
206 208
207 208
209 210
209 211
210 211
212 213
212 214
213 214
215 216
215 217
216 217
218 219
218 220
219 220
221 222
221 223
222 223
224 225
224 226
225 226
227 228
227 229
228 229
230 231
230 232
231 232
233 234
233 235
234 235
236 237
236 238
237 238
239 240
239 241
240 241
242 243
242 244
243 244
245 246
245 247
246 247
248 249
248 250
249 250
251 252
251 253
252 253
254 255
254 256
255 256
257 258
257 259
258 259
260 261
260 262
261 262
263 264
263 265
264 265
266 267
266 268
267 268
269 270
269 271
270 271
272 273
272 274
273 274
275 276
275 277
276 277
278 279
278 280
279 280
281 282
281 283
282 283
284 285
284 286
285 286
287 288
287 289
288 289
290 291
290 292
291 292
293 294
293 295
294 295
296 297
296 298
297 298
299 300
299 301
300 301
302 303
302 304
303 304
305 306
305 307
306 307
308 309
308 310
309 310
311 312
311 313
312 313
314 315
314 316
315 316
317 318
317 319
318 319
320 321
320 322
321 322
323 324
323 325
324 325
326 327
326 328
327 328
329 330
329 331
330 331
332 333
332 334
333 334
335 336
335 337
336 337
338 339
338 340
339 340
341 342
341 343
342 343
344 345
344 346
345 346
347 348
347 349
348 349
350 351
350 352
351 352
353 354
353 355
354 355
356 357
356 358
357 358
359 360
359 361
360 361
362 363
362 364
363 364
365 366
365 367
366 367
368 369
368 370
369 370
371 372
371 373
372 373
374 375
374 376
375 376
377 378
377 379
378 379
380 381
380 382
381 382
383 384
383 385
384 385
386 387
386 388
387 388
389 390
389 391
390 391
392 393
392 394
393 394
395 396
395 397
396 397
398 399
398 400
399 400
401 402
401 403
402 403
404 405
404 406
405 406
407 408
407 409
408 409
410 411
410 412
411 412
413 414
413 415
414 415
416 417
416 418
417 418
419 420
419 421
420 421
422 423
422 424
423 424
425 426
425 427
426 427
428 429
428 430
429 430
431 432
431 433
432 433
434 435
434 436
435 436
437 438
437 439
438 439
440 441
440 442
441 442
443 444
443 445
444 445
446 447
446 448
447 448
449 450
449 451
450 451
452 453
452 454
453 454
455 456
455 457
456 457
458 459
458 460
459 460
461 462
461 463
462 463
464 465
464 466
465 466
467 468
467 469
468 469
470 471
470 472
471 472
473 474
473 475
474 475
476 477
476 478
477 478
479 480
479 481
480 481
482 483
482 484
483 484
485 486
485 487
486 487
488 489
488 490
489 490
491 492
491 493
492 493
494 495
494 496
495 496
497 498
497 499
498 499
500 501
500 502
501 502
503 504
503 505
504 505
506 507
506 508
507 508
509 510
509 511
510 511
512 513
512 514
513 514
515 516
515 517
516 517
518 519
518 520
519 520
521 522
521 523
522 523
524 525
524 526
525 526
527 528
527 529
528 529
530 531
530 532
531 532
533 534
533 535
534 535
536 537
536 538
537 538
539 540
539 541
540 541
542 543
542 544
543 544
545 546
545 547
546 547
548 549
548 550
549 550
551 552
551 553
552 553
554 555
554 556
555 556
557 558
557 559
558 559
560 561
560 562
561 562
563 564
563 565
564 565
566 567
566 568
567 568
569 570
569 571
570 571
572 573
572 574
573 574
575 576
575 577
576 577
578 579
578 580
579 580
581 582
581 583
582 583
584 585
584 586
585 586
587 588
587 589
588 589
590 591
590 592
591 592
593 594
593 595
594 595
596 597
596 598
597 598
599 600
599 601
600 601
602 603
602 604
603 604
605 606
605 607
606 607
608 609
608 610
609 610
611 612
611 613
612 613
614 615
614 616
615 616
617 618
617 619
618 619
620 621
620 622
621 622
623 624
623 625
624 625
626 627
626 628
627 628
629 630
629 631
630 631
632 633
632 634
633 634
635 636
635 637
636 637
638 639
638 640
639 640
641 642
641 643
642 643
644 645
644 646
645 646
647 648
647 649
648 649
650 651
650 652
651 652
653 654
653 655
654 655
656 657
656 658
657 658
659 660
659 661
660 661
662 663
662 664
663 664
665 666
665 667
666 667
668 669
668 670
669 670
671 672
671 673
672 673
674 675
674 676
675 676
677 678
677 679
678 679
680 681
680 682
681 682
683 684
683 685
684 685
686 687
686 688
687 688
689 690
689 691
690 691
692 693
692 694
693 694
695 696
695 697
696 697
698 699
698 700
699 700
701 702
701 703
702 703
704 705
704 706
705 706
707 708
707 709
708 709
710 711
710 712
711 712
713 714
713 715
714 715
716 717
716 718
717 718
719 720
719 721
720 721
722 723
722 724
723 724
725 726
725 727
726 727
728 729
728 730
729 730
731 732
731 733
732 733
734 735
734 736
735 736
737 738
737 739
738 739
740 741
740 742
741 742
743 744
743 745
744 745
746 747
746 748
747 748
749 750
749 751
750 751
752 753
752 754
753 754
755 756
755 757
756 757
758 759
758 760
759 760
761 762
761 763
762 763
764 765
764 766
765 766
767 768
767 769
768 769
770 771
770 772
771 772
773 774
773 775
774 775
776 777
776 778
777 778
779 780
779 781
780 781
782 783
782 784
783 784
785 786
785 787
786 787
788 789
788 790
789 790
791 792
791 793
792 793
794 795
794 796
795 796
797 798
797 799
798 799
800 801
800 802
801 802
803 804
803 805
804 805
806 807
806 808
807 808
809 810
809 811
810 811
812 813
812 814
813 814
815 816
815 817
816 817
818 819
818 820
819 820
821 822
821 823
822 823
824 825
824 826
825 826
827 828
827 829
828 829
830 831
830 832
831 832
833 834
833 835
834 835
836 837
836 838
837 838
839 840
839 841
840 841
842 843
842 844
843 844
845 846
845 847
846 847
848 849
848 850
849 850
851 852
851 853
852 853
854 855
854 856
855 856
857 858
857 859
858 859
860 861
860 862
861 862
863 864
863 865
864 865
866 867
866 868
867 868
869 870
869 871
870 871
872 873
872 874
873 874
875 876
875 877
876 877
878 879
878 880
879 880
881 882
881 883
882 883
884 885
884 886
885 886
887 888
887 889
888 889
890 891
890 892
891 892
893 894
893 895
894 895
896 897
896 898
897 898
899 900
899 901
900 901
902 903
902 904
903 904
905 906
905 907
906 907
908 909
908 910
909 910
911 912
911 913
912 913
914 915
914 916
915 916
917 918
917 919
918 919
920 921
920 922
921 922
923 924
923 925
924 925
926 927
926 928
927 928
929 930
929 931
930 931
932 933
932 934
933 934
935 936
935 937
936 937
938 939
938 940
939 940
941 942
941 943
942 943
944 945
944 946
945 946
947 948
947 949
948 949
950 951
950 952
951 952
953 954
953 955
954 955
956 957
956 958
957 958
959 960
959 961
960 961
962 963
962 964
963 964
965 966
965 967
966 967
968 969
968 970
969 970
971 972
971 973
972 973
974 975
974 976
975 976
977 978
977 979
978 979
980 981
980 982
981 982
983 984
983 985
984 985
986 987
986 988
987 988
989 990
989 991
990 991
992 993
992 994
993 994
995 996
995 997
996 997
998 999
998 1000
999 1000
1001 1002
1001 1003
1002 1003
1004 1005
1004 1006
1005 1006
1007 1008
1007 1009
1008 1009
1010 1011
1010 1012
1011 1012
1013 1014
1013 1015
1014 1015
1016 1017
1016 1018
1017 1018
1019 1020
1019 1021
1020 1021
1022 1023
1022 1024
1023 1024
1025 1026
1025 1027
1026 1027
1028 1029
1028 1030
1029 1030
1031 1032
1031 1033
1032 1033
1034 1035
1034 1036
1035 1036
1037 1038
1037 1039
1038 1039
1040 1041
1040 1042
1041 1042
1043 1044
1043 1045
1044 1045
1046 1047
1046 1048
1047 1048
1049 1050
1049 1051
1050 1051
1052 1053
1052 1054
1053 1054
1055 1056
1055 1057
1056 1057
1058 1059
1058 1060
1059 1060
1061 1062
1061 1063
1062 1063
1064 1065
1064 1066
1065 1066
1067 1068
1067 1069
1068 1069
1070 1071
1070 1072
1071 1072
1073 1074
1073 1075
1074 1075
1076 1077
1076 1078
1077 1078
1079 1080
1079 1081
1080 1081
1082 1083
1082 1084
1083 1084
1085 1086
1085 1087
1086 1087
1088 1089
1088 1090
1089 1090
1091 1092
1091 1093
1092 1093
1094 1095
1094 1096
1095 1096
1097 1098
1097 1099
1098 1099
1100 1101
1100 1102
1101 1102
1103 1104
1103 1105
1104 1105
1106 1107
1106 1108
1107 1108
1109 1110
1109 1111
1110 1111
1112 1113
1112 1114
1113 1114
1115 1116
1115 1117
1116 1117
1118 1119
1118 1120
1119 1120
1121 1122
1121 1123
1122 1123
1124 1125
1124 1126
1125 1126
1127 1128
1127 1129
1128 1129
1130 1131
1130 1132
1131 1132
1133 1134
1133 1135
1134 1135
1136 1137
1136 1138
1137 1138
1139 1140
1139 1141
1140 1141
1142 1143
1142 1144
1143 1144
1145 1146
1145 1147
1146 1147
1148 1149
1148 1150
1149 1150
1151 1152
1151 1153
1152 1153
1154 1155
1154 1156
1155 1156
1157 1158
1157 1159
1158 1159
1160 1161
1160 1162
1161 1162
1163 1164
1163 1165
1164 1165
1166 1167
1166 1168
1167 1168
1169 1170
1169 1171
1170 1171
1172 1173
1172 1174
1173 1174
1175 1176
1175 1177
1176 1177
1178 1179
1178 1180
1179 1180
1181 1182
1181 1183
1182 1183
1184 1185
1184 1186
1185 1186
1187 1188
1187 1189
1188 1189
1190 1191
1190 1192
1191 1192
1193 1194
1193 1195
1194 1195
1196 1197
1196 1198
1197 1198
1199 1200
1199 1201
1200 1201
1202 1203
1202 1204
1203 1204
1205 1206
1205 1207
1206 1207
1208 1209
1208 1210
1209 1210
1211 1212
1211 1213
1212 1213
1214 1215
1214 1216
1215 1216
1217 1218
1217 1219
1218 1219
1220 1221
1220 1222
1221 1222
1223 1224
1223 1225
1224 1225
1226 1227
1226 1228
1227 1228
1229 1230
1229 1231
1230 1231
1232 1233
1232 1234
1233 1234
1235 1236
1235 1237
1236 1237
1238 1239
1238 1240
1239 1240
1241 1242
1241 1243
1242 1243
1244 1245
1244 1246
1245 1246
1247 1248
1247 1249
1248 1249
1250 1251
1250 1252
1251 1252
1253 1254
1253 1255
1254 1255
1256 1257
1256 1258
1257 1258
1259 1260
1259 1261
1260 1261
1262 1263
1262 1264
1263 1264
1265 1266
1265 1267
1266 1267
1268 1269
1268 1270
1269 1270
1271 1272
1271 1273
1272 1273
1274 1275
1274 1276
1275 1276
1277 1278
1277 1279
1278 1279
1280 1281
1280 1282
1281 1282
1283 1284
1283 1285
1284 1285
1286 1287
1286 1288
1287 1288
1289 1290
1289 1291
1290 1291
1292 1293
1292 1294
1293 1294
1295 1296
1295 1297
1296 1297
1298 1299
1298 1300
1299 1300
1301 1302
1301 1303
1302 1303
1304 1305
1304 1306
1305 1306
1307 1308
1307 1309
1308 1309
1310 1311
1310 1312
1311 1312
1313 1314
1313 1315
1314 1315
1316 1317
1316 1318
1317 1318
1319 1320
1319 1321
1320 1321
1322 1323
1322 1324
1323 1324
1325 1326
1325 1327
1326 1327
1328 1329
1328 1330
1329 1330
1331 1332
1331 1333
1332 1333
1334 1335
1334 1336
1335 1336
1337 1338
1337 1339
1338 1339
1340 1341
1340 1342
1341 1342
1343 1344
1343 1345
1344 1345
1346 1347
1346 1348
1347 1348
1349 1350
1349 1351
1350 1351
1352 1353
1352 1354
1353 1354
1355 1356
1355 1357
1356 1357
1358 1359
1358 1360
1359 1360
1361 1362
1361 1363
1362 1363
1364 1365
1364 1366
1365 1366
1367 1368
1367 1369
1368 1369
1370 1371
1370 1372
1371 1372
1373 1374
1373 1375
1374 1375
1376 1377
1376 1378
1377 1378
1379 1380
1379 1381
1380 1381
1382 1383
1382 1384
1383 1384
1385 1386
1385 1387
1386 1387
1388 1389
1388 1390
1389 1390
