0_instance_selection/optil_deployment/lite/optil/private/vc-lite_018.out
s vc 1490 960
1
2
3
4
5
6
7
8
14
15
16
18
21
25
34
35
36
37
38
41
44
49
52
53
55
58
59
63
65
68
70
73
79
82
84
89
94
95
97
100
101
103
104
105
107
109
110
111
113
114
117
118
119
120
122
124
125
126
128
129
131
133
134
136
137
139
140
142
144
145
146
148
149
150
152
153
156
157
158
159
161
163
164
166
167
168
171
172
174
175
176
178
179
180
182
184
186
187
188
189
192
193
194
195
198
199
201
202
203
205
207
208
209
210
212
214
216
217
218
220
221
222
224
226
227
228
230
231
233
234
237
238
240
241
242
243
245
246
248
250
251
253
255
256
258
259
261
262
263
265
266
268
270
271
272
273
276
277
278
280
281
283
285
286
288
289
290
291
293
295
296
298
299
300
302
304
305
307
308
309
311
313
315
316
317
318
320
321
323
324
326
328
330
331
333
334
336
337
338
340
341
343
344
346
347
349
351
352
353
355
357
358
359
361
363
364
365
366
368
370
371
372
375
376
377
379
381
382
384
385
386
388
389
391
392
394
395
397
398
400
401
403
405
406
407
409
410
412
413
414
417
418
419
421
422
423
425
426
428
430
431
433
435
436
438
439
440
442
443
445
447
448
450
451
452
453
455
456
458
459
461
463
464
465
467
469
471
472
473
475
477
478
479
481
483
484
485
486
489
490
491
492
495
496
498
499
500
502
504
505
506
508
509
510
513
514
516
517
518
519
521
522
525
526
527
528
530
532
533
535
536
538
539
541
542
543
545
547
548
550
551
553
555
556
557
558
560
562
563
564
566
567
570
571
572
573
575
577
578
580
581
583
585
586
587
589
591
592
593
595
596
598
600
601
603
604
605
607
608
610
612
613
615
616
618
619
620
621
624
625
626
628
630
631
633
634
636
637
638
640
641
643
644
646
648
649
651
652
653
654
656
657
660
661
662
663
666
667
669
670
671
672
675
676
678
679
681
682
683
685
686
688
690
691
692
694
695
696
698
699
701
702
705
706
707
709
711
712
713
715
716
718
719
720
722
723
725
726
728
730
731
733
734
736
737
738
740
741
744
745
746
748
749
750
753
754
755
756
759
760
761
762
765
766
767
769
770
771
773
775
776
778
780
781
783
784
785
787
788
789
792
793
794
796
797
798
800
802
804
805
806
808
809
810
813
814
815
816
818
820
821
823
824
825
828
829
830
832
833
835
836
838
839
840
842
843
845
846
848
850
851
852
855
856
858
859
860
861
863
865
866
867
869
870
872
874
875
876
878
880
881
883
884
886
888
889
890
891
893
895
897
898
899
900
902
903
906
907
908
910
912
913
915
916
918
919
920
922
924
925
927
928
929
930
933
934
936
937
938
939
941
943
944
946
947
949
950
951
953
954
956
957
959
961
962
963
966
967
968
970
971
972
974
976
977
979
980
981
984
985
986
987
989
990
992
993
995
996
999
1000
1001
1002
1004
1005
1008
1009
1010
1012
1013
1015
1017
1018
1019
1021
1023
1024
1026
1027
1028
1030
1031
1032
1034
1035
1037
1039
1040
1041
1043
1044
1047
1048
1049
1051
1052
1053
1055
1057
1058
1060
1062
1063
1064
1065
1067
1069
1071
1072
1074
1075
1076
1077
1079
1080
1082
1083
1086
1087
1088
1089
1091
1092
1094
1095
1098
1099
1100
1102
1104
1105
1107
1108
1109
1111
1113
1114
1115
1116
1119
1120
1122
1123
1124
1126
1127
1128
1130
1131
1133
1135
1136
1137
1139
1141
1143
1144
1145
1146
1148
1149
1151
1152
1154
1155
1157
1159
1160
1162
1163
1165
1166
1167
1170
1171
1173
1174
1176
1177
1178
1179
1181
1182
1184
1185
1187
1188
1190
1191
1193
1194
1196
1197
1199
1200
1202
1203
1205
1207
1209
1210
1211
1213
1215
1216
1217
1218
1220
1222
1223
1224
1226
1228
1229
1230
1232
1234
1236
1237
1238
1239
1241
1243
1244
1246
1247
1249
1250
1251
1254
1255
1256
1257
1259
1261
1262
1264
1265
1266
1268
1270
1271
1272
1274
1276
1277
1278
1281
1282
1283
1284
1287
1288
1290
1291
1292
1294
1296
1297
1299
1300
1301
1303
1305
1306
1308
1309
1310
1311
1313
1315
1316
1317
1319
1321
1322
1323
1326
1327
1329
1330
1332
1333
1334
1336
1337
1338
1341
1342
1343
1344
1346
1347
1349
1351
1352
1354
1355
1356
1358
1359
1362
1363
1365
1366
1367
1369
1371
1372
1373
1375
1376
1377
1379
1380
1382
1384
1385
1387
1389
1390
1399
1400
1401
1402
1403
1407
1409
1410
1412
1413
1414
1416
1417
1418
1419
1420
1421
1422
1423
1429
1430
1432
1433
1435
1436
1437
1438
1440
1441
1444
1446
1447
1450
1451
1452
1454
1456
1457
1459
1461
1462
1464
1465
1466
1467
1468
1470
1471
1473
1475
1476
1477
1478
1480
1481
1482
1483
1486
1488
1489
